This is Ipopt version 3.14.4, running with linear solver MUMPS 5.2.1.

Number of nonzeros in equality constraint Jacobian...:        0
Number of nonzeros in inequality constraint Jacobian.:        0
Number of nonzeros in Lagrangian Hessian.............:        0

Total number of variables............................:     9619
                     variables with only lower bounds:        0
                variables with lower and upper bounds:     9619
                     variables with only upper bounds:        0
Total number of equality constraints.................:        0
Total number of inequality constraints...............:        0
        inequality constraints with only lower bounds:        0
   inequality constraints with lower and upper bounds:        0
        inequality constraints with only upper bounds:        0

iter    objective    inf_pr   inf_du lg(mu)  ||d||  lg(rg) alpha_du alpha_pr  ls
   0  2.3710073e+02 0.00e+00 1.04e+02   0.0 0.00e+00    -  0.00e+00 0.00e+00   0
   1  3.1187499e+02 0.00e+00 6.17e+01  -0.2 5.40e-01    -  9.91e-01 8.29e-03f  7
   2  3.4318473e+02 0.00e+00 5.65e+01  -0.2 2.72e-02    -  1.00e+00 1.00e+00f  1
   3  5.2185937e+02 0.00e+00 1.13e+02  -0.2 1.18e-01    -  5.83e-01 2.50e-01f  3
   4  5.7324404e+02 0.00e+00 9.11e+01  -0.2 1.99e-01    -  1.00e+00 6.25e-02f  5
   5  7.3400731e+02 0.00e+00 9.76e+01  -0.2 1.03e-01    -  6.98e-01 2.50e-01f  3
   6  8.3511704e+02 0.00e+00 1.46e+02  -0.2 1.64e-01    -  1.00e+00 1.25e-01f  4
   7  1.0745613e+03 0.00e+00 2.73e+02  -0.2 1.98e-01    -  5.77e-01 2.50e-01f  3
   8  1.2877678e+03 0.00e+00 3.57e+02  -0.2 2.85e-01    -  1.00e+00 1.25e-01f  4
   9  1.3701124e+03 0.00e+00 2.80e+02  -0.2 1.72e-01    -  1.00e+00 1.25e-01f  4
iter    objective    inf_pr   inf_du lg(mu)  ||d||  lg(rg) alpha_du alpha_pr  ls
  10  1.2508012e+03 0.00e+00 2.92e+02  -0.2 9.61e-02    -  1.00e+00 2.50e-01f  3
  11  1.1458430e+03 0.00e+00 1.61e+02  -0.2 1.35e-01    -  1.00e+00 9.40e-02f  4
  12  1.1533104e+03 0.00e+00 1.41e+02  -0.2 3.88e-02    -  1.00e+00 5.00e-01f  2
  13  1.8777894e+03 0.00e+00 2.15e+02  -0.2 3.19e-02    -  1.00e+00 1.00e+00w  1
  14  1.3495812e+03 0.00e+00 1.68e+02  -0.2 2.85e-02    -  1.00e+00 1.00e+00w  1
  15  1.1157960e+03 0.00e+00 6.78e+01  -0.2 1.62e-02    -  1.00e+00 1.00e+00f  1
  16  1.0706594e+03 0.00e+00 3.64e+01  -0.2 7.84e-03    -  1.00e+00 1.00e+00f  1
  17  1.0483671e+03 0.00e+00 3.00e+01  -0.2 2.82e-03    -  1.00e+00 1.00e+00f  1
  18  1.0448396e+03 0.00e+00 2.20e+01  -0.2 3.83e-03    -  1.00e+00 1.00e+00f  1
  19  1.0431321e+03 0.00e+00 1.84e+01  -0.2 3.06e-03    -  1.00e+00 1.00e+00f  1
iter    objective    inf_pr   inf_du lg(mu)  ||d||  lg(rg) alpha_du alpha_pr  ls
  20  1.0398883e+03 0.00e+00 1.75e+01  -0.2 1.38e-02    -  1.00e+00 1.00e+00f  1
  21  1.0363989e+03 0.00e+00 1.54e+01  -0.2 5.48e-02    -  1.00e+00 5.00e-01f  2
  22  1.0310682e+03 0.00e+00 2.65e+01  -0.2 1.23e-01    -  1.00e+00 3.46e-01f  2
  23  1.0271078e+03 0.00e+00 2.41e+01  -0.2 3.69e-02    -  1.00e+00 2.50e-01f  3
  24  1.0181875e+03 0.00e+00 1.86e+01  -0.2 1.36e-02    -  1.00e+00 1.00e+00f  1
  25  1.0149154e+03 0.00e+00 2.32e+01  -0.2 1.53e-02    -  1.00e+00 5.00e-01f  2
  26  1.0084639e+03 0.00e+00 1.54e+01  -0.2 1.12e-02    -  1.00e+00 1.00e+00f  1
  27  1.0033911e+03 0.00e+00 1.83e+01  -0.2 2.03e-03    -  1.00e+00 1.00e+00f  1
  28  9.9980940e+02 0.00e+00 2.17e+01  -0.2 6.62e-03    -  1.00e+00 1.00e+00f  1
  29  9.9269542e+02 0.00e+00 2.28e+01  -0.2 1.97e-01    -  1.00e+00 1.22e-01f  4
iter    objective    inf_pr   inf_du lg(mu)  ||d||  lg(rg) alpha_du alpha_pr  ls
  30  9.7947986e+02 0.00e+00 3.23e+01  -0.2 1.71e-01    -  1.00e+00 2.46e-01f  3
  31  9.7229979e+02 0.00e+00 4.16e+01  -0.2 1.47e-01    -  1.00e+00 5.42e-02f  5
  32  9.6266998e+02 0.00e+00 4.22e+01  -0.2 7.46e-02    -  1.00e+00 1.25e-01f  4
  33  9.5912208e+02 0.00e+00 2.41e+01  -0.2 3.70e-02    -  1.00e+00 1.25e-01f  4
  34  9.5291616e+02 0.00e+00 3.85e+01  -0.2 4.74e-02    -  1.00e+00 2.50e-01f  3
  35  9.4961519e+02 0.00e+00 2.06e+01  -0.2 1.43e-02    -  1.00e+00 2.50e-01f  3
  36  9.3672405e+02 0.00e+00 1.68e+01  -0.2 2.15e-02    -  1.00e+00 5.00e-01f  2
  37  9.3241824e+02 0.00e+00 1.09e+01  -0.2 2.88e-02    -  1.00e+00 2.50e-01f  3
  38  9.3008100e+02 0.00e+00 6.92e+00  -0.2 3.42e-03    -  1.00e+00 5.00e-01f  2
  39  9.3364221e+02 0.00e+00 1.70e+01  -0.2 5.11e-03    -  1.00e+00 1.00e+00w  1
iter    objective    inf_pr   inf_du lg(mu)  ||d||  lg(rg) alpha_du alpha_pr  ls
  40  9.4329806e+02 0.00e+00 2.86e+01  -0.2 3.42e-03    -  1.00e+00 1.00e+00w  1
  41  9.2861687e+02 0.00e+00 1.07e+01  -0.2 3.40e-03    -  1.00e+00 1.00e+00f  1
  42  9.2451751e+02 0.00e+00 5.03e+00  -0.2 2.72e-03    -  1.00e+00 1.00e+00f  1
  43  9.1672215e+02 0.00e+00 1.86e+01  -0.9 5.36e-03    -  1.00e+00 1.00e+00f  1
  44  9.0966973e+02 0.00e+00 2.48e+01  -0.9 5.64e-02    -  1.00e+00 2.47e-01f  2
  45  9.0525704e+02 0.00e+00 3.80e+01  -0.9 1.68e-01    -  1.00e+00 9.98e-02f  3
  46  8.9622262e+02 0.00e+00 4.06e+01  -0.9 8.89e-02    -  1.00e+00 1.25e-01f  4
  47  8.8604112e+02 0.00e+00 4.64e+01  -0.9 5.08e-02    -  1.00e+00 2.50e-01f  3
  48  8.6662961e+02 0.00e+00 3.79e+01  -0.9 3.25e-02    -  1.00e+00 2.50e-01f  3
  49  8.2021665e+02 0.00e+00 8.01e+01  -0.9 1.55e-01    -  1.00e+00 2.06e-01f  2
iter    objective    inf_pr   inf_du lg(mu)  ||d||  lg(rg) alpha_du alpha_pr  ls
  50  8.1108070e+02 0.00e+00 4.28e+01  -0.9 2.58e-01    -  1.00e+00 4.06e-02f  5
  51  7.8597706e+02 0.00e+00 5.57e+01  -0.9 9.39e-02    -  1.00e+00 2.50e-01f  3
  52  7.5856776e+02 0.00e+00 8.55e+01  -0.9 4.11e-01    -  1.00e+00 5.80e-02f  4
  53  7.4591706e+02 0.00e+00 6.53e+01  -0.9 2.24e-01    -  1.00e+00 5.59e-02f  5
  54  1.0141824e+03 0.00e+00 1.69e+02  -0.9 1.00e-01    -  1.00e+00 1.00e+00w  1
  55  7.4428020e+03 0.00e+00 6.28e+02  -0.9 1.06e-01    -  1.00e+00 1.00e+00w  1
  56  1.2171295e+03 0.00e+00 1.55e+02  -0.9 1.04e-01    -  2.69e-01 1.00e+00w  1
  57  7.2220983e+02 0.00e+00 7.23e+01  -0.9 8.46e-02    -  1.00e+00 2.50e-01f  2
  58  7.1611172e+02 0.00e+00 3.50e+01  -0.9 8.35e-02    -  1.00e+00 1.25e-01f  4
  59  6.9134135e+02 0.00e+00 2.78e+01  -0.9 6.02e-02    -  1.00e+00 2.50e-01f  3
iter    objective    inf_pr   inf_du lg(mu)  ||d||  lg(rg) alpha_du alpha_pr  ls
  60  6.7324837e+02 0.00e+00 1.31e+01  -0.9 1.15e-01    -  1.00e+00 6.25e-02f  5
  61  6.6386156e+02 0.00e+00 2.19e+01  -0.9 2.62e-02    -  1.00e+00 2.50e-01f  3
  62  6.5405478e+02 0.00e+00 2.01e+01  -0.9 1.76e-02    -  1.00e+00 5.00e-01f  2
  63  6.4721136e+02 0.00e+00 1.84e+01  -0.9 1.97e-02    -  1.00e+00 2.50e-01f  3
  64  6.4107250e+02 0.00e+00 1.14e+01  -0.9 1.36e-02    -  1.00e+00 2.50e-01f  3
  65  6.3335254e+02 0.00e+00 8.07e+00  -0.9 3.68e-03    -  1.00e+00 1.00e+00f  1
  66  6.3009907e+02 0.00e+00 9.14e+00  -0.9 6.80e-03    -  1.00e+00 5.00e-01f  2
  67  6.2359968e+02 0.00e+00 9.19e+00  -0.9 1.11e-02    -  1.00e+00 5.00e-01f  2
  68  6.1677646e+02 0.00e+00 9.63e+00  -0.9 5.29e-02    -  1.00e+00 1.25e-01f  4
  69  6.0993145e+02 0.00e+00 1.76e+01  -0.9 7.78e-02    -  1.00e+00 1.25e-01f  4
iter    objective    inf_pr   inf_du lg(mu)  ||d||  lg(rg) alpha_du alpha_pr  ls
  70  6.0199170e+02 0.00e+00 2.11e+01  -0.9 7.05e-02    -  1.00e+00 1.25e-01f  4
  71  5.9798060e+02 0.00e+00 1.64e+01  -0.9 5.59e-02    -  1.00e+00 6.25e-02f  5
  72  5.8466048e+02 0.00e+00 2.77e+01  -0.9 5.09e-02    -  1.00e+00 2.50e-01f  3
  73  5.6675234e+02 0.00e+00 4.49e+01  -0.9 1.67e-01    -  1.00e+00 1.15e-01f  4
  74  5.6238470e+02 0.00e+00 2.82e+01  -0.9 8.80e-02    -  1.00e+00 6.25e-02f  5
  75  5.5624719e+02 0.00e+00 1.85e+01  -0.9 1.35e-02    -  1.00e+00 2.50e-01f  3
  76  5.9327689e+02 0.00e+00 6.29e+01  -0.9 3.35e-02    -  1.00e+00 1.00e+00w  1
  77  1.6306453e+03 0.00e+00 1.69e+02  -0.9 2.76e-02    -  1.00e+00 1.00e+00w  1
  78  5.3398639e+02 0.00e+00 1.80e+01  -0.9 2.77e-02    -  1.00e+00 1.00e+00f  1
  79  5.2328086e+02 0.00e+00 1.17e+01  -0.9 1.08e-02    -  1.00e+00 2.50e-01f  3
iter    objective    inf_pr   inf_du lg(mu)  ||d||  lg(rg) alpha_du alpha_pr  ls
  80  5.1858897e+02 0.00e+00 1.71e+01  -0.9 5.99e-03    -  1.00e+00 1.00e+00f  1
  81  5.1478800e+02 0.00e+00 1.06e+01  -0.9 1.32e-02    -  1.00e+00 2.50e-01f  3
  82  5.1142146e+02 0.00e+00 7.50e+00  -0.9 7.05e-03    -  1.00e+00 2.50e-01f  3
  83  5.1142990e+02 0.00e+00 1.15e+01  -0.9 4.28e-03    -  1.00e+00 5.00e-01f  2
  84  5.0887373e+02 0.00e+00 1.02e+01  -0.9 1.62e-03    -  1.00e+00 1.00e+00f  1
  85  5.0536748e+02 0.00e+00 2.90e+00  -0.9 2.28e-03    -  1.00e+00 1.00e+00f  1
  86  5.0345094e+02 0.00e+00 3.73e+00  -0.9 8.15e-03    -  1.00e+00 2.50e-01f  3
  87  5.0079546e+02 0.00e+00 7.27e+00  -0.9 2.67e-02    -  1.00e+00 1.25e-01f  4
  88  4.9291600e+02 0.00e+00 1.12e+01  -0.9 4.89e-02    -  1.00e+00 2.50e-01f  3
  89  4.8875511e+02 0.00e+00 1.42e+01  -0.9 1.42e-01    -  1.00e+00 6.25e-02f  5
iter    objective    inf_pr   inf_du lg(mu)  ||d||  lg(rg) alpha_du alpha_pr  ls
  90  4.8672935e+02 0.00e+00 9.63e+00  -0.9 4.54e-02    -  1.00e+00 6.25e-02f  5
  91  4.8567270e+02 0.00e+00 8.47e+00  -0.9 8.15e-03    -  1.00e+00 1.25e-01f  4
  92  4.8978013e+02 0.00e+00 1.43e+01  -0.9 7.61e-03    -  1.00e+00 1.00e+00f  1
  93  4.8976546e+02 0.00e+00 7.41e+00  -0.9 4.49e-02    -  1.00e+00 6.25e-02f  5
  94  4.8961201e+02 0.00e+00 1.39e+01  -0.9 6.74e-03    -  1.00e+00 2.50e-01f  3
  95  4.8790156e+02 0.00e+00 1.75e+01  -0.9 5.68e-03    -  1.00e+00 1.00e+00f  1
  96  4.8479858e+02 0.00e+00 1.20e+01  -0.9 2.47e-02    -  1.00e+00 1.25e-01f  4
  97  4.8272273e+02 0.00e+00 1.35e+01  -0.9 1.17e-02    -  1.00e+00 2.50e-01f  3
  98  4.8250550e+02 0.00e+00 1.40e+01  -0.9 4.39e-03    -  1.00e+00 5.00e-01f  2
  99  4.7938759e+02 0.00e+00 1.05e+01  -0.9 4.09e-03    -  1.00e+00 5.00e-01f  2
iter    objective    inf_pr   inf_du lg(mu)  ||d||  lg(rg) alpha_du alpha_pr  ls
 100  4.7865707e+02 0.00e+00 8.36e+00  -0.9 2.10e-03    -  1.00e+00 1.00e+00f  1
 101  4.7636376e+02 0.00e+00 1.18e+01  -0.9 4.46e-03    -  1.00e+00 1.00e+00f  1
 102  4.7448807e+02 0.00e+00 1.07e+01  -0.9 2.76e-02    -  1.00e+00 1.25e-01f  4
 103  4.7282483e+02 0.00e+00 8.47e+00  -0.9 1.80e-02    -  1.00e+00 1.25e-01f  4
 104  4.7159039e+02 0.00e+00 8.66e+00  -0.9 2.76e-02    -  1.00e+00 1.25e-01f  4
 105  4.7019371e+02 0.00e+00 8.47e+00  -0.9 1.99e-02    -  1.00e+00 1.25e-01f  4
 106  4.6960292e+02 0.00e+00 8.00e+00  -0.9 1.28e-02    -  1.00e+00 1.25e-01f  4
 107  4.6883723e+02 0.00e+00 1.42e+01  -0.9 2.64e-02    -  1.00e+00 2.50e-01f  3
 108  4.6675149e+02 0.00e+00 9.55e+00  -0.9 5.84e-02    -  1.00e+00 1.25e-01f  4
 109  4.6448664e+02 0.00e+00 8.41e+00  -0.9 8.64e-02    -  1.00e+00 6.25e-02f  5
iter    objective    inf_pr   inf_du lg(mu)  ||d||  lg(rg) alpha_du alpha_pr  ls
 110  4.6327484e+02 0.00e+00 8.49e+00  -0.9 6.07e-02    -  1.00e+00 3.13e-02f  6
 111  4.6231049e+02 0.00e+00 1.18e+01  -0.9 3.29e-02    -  1.00e+00 2.50e-01f  3
 112  2.2084083e+03 0.00e+00 2.26e+02  -0.9 5.06e-02    -  1.00e+00 1.00e+00w  1
 113  4.8214145e+02 0.00e+00 3.17e+01  -0.9 4.74e-02    -  1.00e+00 1.00e+00w  1
 114  3.5416297e+03 0.00e+00 4.19e+02  -0.9 3.40e-02    -  1.00e+00 1.00e+00w  1
 115  4.5689479e+02 0.00e+00 4.74e+00  -0.9 3.18e-02    -  1.00e+00 1.00e+00f  1
 116  4.5643477e+02 0.00e+00 4.51e+00  -0.9 7.23e-04    -  1.00e+00 1.00e+00f  1
 117  4.5599193e+02 0.00e+00 1.17e+00  -0.9 3.05e-04    -  1.00e+00 1.00e+00f  1
 118  4.5424588e+02 0.00e+00 7.48e+00  -1.6 2.63e-03    -  1.00e+00 1.00e+00f  1
 119  4.5103357e+02 0.00e+00 9.83e+00  -1.6 1.23e-02    -  1.00e+00 6.05e-01f  1
iter    objective    inf_pr   inf_du lg(mu)  ||d||  lg(rg) alpha_du alpha_pr  ls
 120  4.5002303e+02 0.00e+00 1.41e+01  -1.6 2.04e-02    -  1.00e+00 2.21e-01f  2
 121  4.4830869e+02 0.00e+00 1.19e+01  -1.6 1.24e-02    -  1.00e+00 5.00e-01f  2
 122  4.4550689e+02 0.00e+00 7.12e+00  -1.6 2.17e-02    -  1.00e+00 1.76e-01f  3
 123  4.4420144e+02 0.00e+00 1.53e+01  -1.6 1.62e-02    -  1.00e+00 5.00e-01f  2
 124  4.4186793e+02 0.00e+00 1.62e+01  -1.6 1.55e-02    -  1.00e+00 2.50e-01f  3
 125  4.3739607e+02 0.00e+00 7.31e+00  -1.6 5.27e-03    -  1.00e+00 5.00e-01f  2
 126  4.3426731e+02 0.00e+00 8.33e+00  -1.6 3.14e-03    -  1.00e+00 5.00e-01f  2
 127  4.3166426e+02 0.00e+00 8.57e+00  -1.6 7.38e-03    -  1.00e+00 5.00e-01f  2
 128  4.3063185e+02 0.00e+00 1.05e+01  -1.6 2.35e-02    -  1.00e+00 2.24e-01f  3
 129  4.2758196e+02 0.00e+00 1.07e+01  -1.6 2.04e-02    -  1.00e+00 3.88e-01f  2
iter    objective    inf_pr   inf_du lg(mu)  ||d||  lg(rg) alpha_du alpha_pr  ls
 130  4.3793995e+02 0.00e+00 4.90e+01  -1.6 7.37e-02    -  1.00e+00 2.40e-01w  1
 131  4.1948899e+03 0.00e+00 5.07e+02  -1.6 1.48e-01    -  1.00e+00 9.08e-01w  1
 132  2.7472006e+03 0.00e+00 3.05e+02  -1.6 6.15e-02    -  6.08e-01 1.00e+00w  1
 133  4.2050996e+02 0.00e+00 2.91e+01  -1.6 2.29e-01    -  1.00e+00 1.20e-01f  1
 134  4.1440037e+02 0.00e+00 1.96e+01  -1.6 4.71e-02    -  1.00e+00 1.25e-01f  4
 135  3.9565312e+02 0.00e+00 4.94e+01  -1.6 1.51e-01    -  1.00e+00 1.18e-01f  4
 136  3.9260952e+02 0.00e+00 4.66e+01  -1.6 2.11e-01    -  5.61e-01 1.20e-02f  7
 137  3.7864589e+02 0.00e+00 3.34e+01  -1.6 2.14e-02    -  1.00e+00 5.00e-01f  2
 138  3.6635092e+02 0.00e+00 4.23e+01  -1.6 1.16e-01    -  9.63e-01 6.25e-02f  5
 139  3.6280073e+02 0.00e+00 3.11e+01  -1.6 5.70e-02    -  1.00e+00 6.25e-02f  5
iter    objective    inf_pr   inf_du lg(mu)  ||d||  lg(rg) alpha_du alpha_pr  ls
 140  3.5800788e+02 0.00e+00 1.90e+01  -1.6 2.05e-02    -  1.00e+00 2.50e-01f  3
 141  3.5353440e+02 0.00e+00 1.32e+01  -1.6 8.55e-03    -  1.00e+00 5.00e-01f  2
 142  3.4801968e+02 0.00e+00 9.74e+00  -1.6 6.79e-03    -  1.00e+00 2.50e-01f  3
 143  3.4546678e+02 0.00e+00 8.12e+00  -1.6 4.99e-03    -  1.00e+00 2.50e-01f  3
 144  3.4472335e+02 0.00e+00 1.26e+01  -1.6 2.96e-03    -  1.00e+00 1.00e+00f  1
 145  3.4276804e+02 0.00e+00 4.56e+00  -1.6 1.21e-03    -  1.00e+00 1.00e+00f  1
 146  3.4131574e+02 0.00e+00 1.56e+00  -1.6 9.34e-04    -  1.00e+00 1.00e+00f  1
 147  3.3965535e+02 0.00e+00 1.07e+01  -1.6 5.87e-03    -  1.00e+00 5.00e-01f  2
 148  3.3533878e+02 0.00e+00 1.45e+01  -1.6 2.95e-02    -  1.00e+00 1.25e-01f  4
 149  3.3323161e+02 0.00e+00 1.75e+01  -1.6 6.34e-02    -  1.00e+00 3.13e-02f  6
iter    objective    inf_pr   inf_du lg(mu)  ||d||  lg(rg) alpha_du alpha_pr  ls
 150  3.3141646e+02 0.00e+00 1.44e+01  -1.6 1.02e-02    -  1.00e+00 2.50e-01f  3
 151  3.2778977e+02 0.00e+00 1.11e+01  -1.6 1.47e-02    -  1.00e+00 2.50e-01f  3
 152  3.2503825e+02 0.00e+00 1.24e+01  -1.6 3.81e-02    -  1.00e+00 1.25e-01f  4
 153  3.2365879e+02 0.00e+00 2.07e+01  -1.6 2.14e-02    -  1.00e+00 1.25e-01f  4
 154  3.1961309e+02 0.00e+00 1.07e+01  -1.6 1.01e-02    -  1.00e+00 2.50e-01f  3
 155  3.1635102e+02 0.00e+00 7.25e+00  -1.6 2.07e-02    -  1.00e+00 1.25e-01f  4
 156  3.1609919e+02 0.00e+00 1.60e+01  -1.6 1.25e-02    -  1.00e+00 2.50e-01f  3
 157  3.2498061e+02 0.00e+00 3.44e+01  -1.6 4.77e-03    -  1.00e+00 1.00e+00w  1
 158  3.1949987e+02 0.00e+00 1.79e+01  -1.6 3.33e-03    -  1.00e+00 1.00e+00w  1
 159  3.1199570e+02 0.00e+00 8.35e+00  -1.6 2.98e-03    -  1.00e+00 1.00e+00f  1
iter    objective    inf_pr   inf_du lg(mu)  ||d||  lg(rg) alpha_du alpha_pr  ls
 160  3.1080873e+02 0.00e+00 6.22e+00  -1.6 1.92e-03    -  1.00e+00 5.00e-01f  2
 161  3.1012075e+02 0.00e+00 3.14e+00  -1.6 9.72e-04    -  1.00e+00 1.00e+00f  1
 162  3.1010439e+02 0.00e+00 5.71e+00  -1.6 6.90e-04    -  1.00e+00 1.00e+00f  1
 163  3.0916109e+02 0.00e+00 1.77e+00  -1.6 5.20e-04    -  1.00e+00 1.00e+00f  1
 164  3.0843658e+02 0.00e+00 3.49e+00  -1.6 9.03e-04    -  1.00e+00 1.00e+00f  1
 165  3.0731873e+02 0.00e+00 7.49e+00  -1.6 5.18e-03    -  1.00e+00 5.00e-01f  2
 166  3.0657500e+02 0.00e+00 8.01e+00  -1.6 2.04e-02    -  1.00e+00 6.25e-02f  5
 167  3.0612399e+02 0.00e+00 7.37e+00  -1.6 4.55e-03    -  1.00e+00 2.50e-01f  3
 168  3.0501816e+02 0.00e+00 8.05e+00  -1.6 4.26e-03    -  1.00e+00 5.00e-01f  2
 169  3.0438392e+02 0.00e+00 7.27e+00  -1.6 1.02e-02    -  1.00e+00 2.50e-01f  3
iter    objective    inf_pr   inf_du lg(mu)  ||d||  lg(rg) alpha_du alpha_pr  ls
 170  3.0414728e+02 0.00e+00 8.80e+00  -1.6 6.51e-03    -  1.00e+00 2.50e-01f  3
 171  3.0312840e+02 0.00e+00 6.68e+00  -1.6 2.21e-03    -  1.00e+00 5.00e-01f  2
 172  3.0252167e+02 0.00e+00 6.40e+00  -1.6 4.94e-03    -  1.00e+00 5.00e-01f  2
 173  3.0206295e+02 0.00e+00 6.68e+00  -1.6 2.36e-03    -  1.00e+00 2.50e-01f  3
 174  3.0131056e+02 0.00e+00 4.08e+00  -1.6 9.54e-04    -  1.00e+00 1.00e+00f  1
 175  3.0091683e+02 0.00e+00 3.32e+00  -1.6 9.20e-04    -  1.00e+00 1.00e+00f  1
 176  3.0042894e+02 0.00e+00 3.89e+00  -1.6 2.45e-03    -  1.00e+00 5.00e-01f  2
 177  2.9941316e+02 0.00e+00 4.07e+00  -1.6 1.77e-02    -  1.00e+00 1.25e-01f  4
 178  2.9829988e+02 0.00e+00 7.91e+00  -1.6 5.48e-02    -  1.00e+00 6.25e-02f  5
 179  2.9763078e+02 0.00e+00 6.56e+00  -1.6 4.11e-02    -  1.00e+00 3.13e-02f  6
iter    objective    inf_pr   inf_du lg(mu)  ||d||  lg(rg) alpha_du alpha_pr  ls
 180  2.9647106e+02 0.00e+00 8.13e+00  -1.6 7.49e-03    -  1.00e+00 2.50e-01f  3
 181  2.9462964e+02 0.00e+00 7.48e+00  -1.6 6.01e-02    -  1.00e+00 6.25e-02f  5
 182  2.9222498e+02 0.00e+00 3.39e+00  -1.6 1.94e-01    -  1.00e+00 2.89e-02f  6
 183  2.9181516e+02 0.00e+00 2.72e+00  -1.6 7.32e-02    -  1.00e+00 1.56e-02f  7
 184  2.9079776e+02 0.00e+00 3.31e+00  -1.6 1.02e-02    -  1.00e+00 2.50e-01f  3
 185  2.8937327e+02 0.00e+00 7.24e+00  -1.6 6.20e-02    -  1.00e+00 1.25e-01f  4
 186  1.0712340e+03 0.00e+00 1.74e+02  -1.6 7.20e-02    -  1.00e+00 1.00e+00w  1
 187  3.4971190e+02 0.00e+00 5.54e+01  -1.6 5.78e-02    -  1.00e+00 1.00e+00w  1
 188  1.0442847e+04 0.00e+00 7.23e+02  -1.6 1.21e-01    -  1.00e+00 1.00e+00w  1
 189  2.8838426e+02 0.00e+00 5.26e+00  -1.6 9.64e-02    -  1.00e+00 3.13e-02f  5
iter    objective    inf_pr   inf_du lg(mu)  ||d||  lg(rg) alpha_du alpha_pr  ls
 190  2.8765242e+02 0.00e+00 5.11e+00  -1.6 2.56e-03    -  1.00e+00 5.00e-01f  2
 191  2.8717270e+02 0.00e+00 3.23e+00  -1.6 2.96e-03    -  1.00e+00 5.00e-01f  2
 192  2.8698661e+02 0.00e+00 3.63e+00  -1.6 6.40e-03    -  1.00e+00 1.25e-01f  4
 193  2.8667337e+02 0.00e+00 3.49e+00  -1.6 2.12e-03    -  1.00e+00 5.00e-01f  2
 194  2.8635862e+02 0.00e+00 3.41e+00  -1.6 2.30e-03    -  1.00e+00 5.00e-01f  2
 195  2.8586246e+02 0.00e+00 2.59e+00  -1.6 3.12e-03    -  1.00e+00 5.00e-01f  2
 196  2.8557851e+02 0.00e+00 4.32e+00  -1.6 5.98e-03    -  1.00e+00 2.50e-01f  3
 197  2.8529956e+02 0.00e+00 4.07e+00  -1.6 3.58e-03    -  1.00e+00 5.00e-01f  2
 198  2.8497206e+02 0.00e+00 4.74e+00  -1.6 5.68e-03    -  1.00e+00 2.50e-01f  3
 199  2.8915642e+02 0.00e+00 1.68e+01  -1.6 6.47e-03    -  1.00e+00 1.00e+00w  1
iter    objective    inf_pr   inf_du lg(mu)  ||d||  lg(rg) alpha_du alpha_pr  ls
 200  2.9897392e+02 0.00e+00 2.32e+01  -1.6 9.11e-03    -  1.00e+00 1.00e+00w  1
 201  2.9953116e+02 0.00e+00 2.31e+01  -1.6 3.98e-03    -  1.00e+00 1.00e+00w  1
 202  2.8452009e+02 0.00e+00 3.96e+00  -1.6 2.80e-03    -  1.00e+00 2.50e-01f  2
 203  2.8349122e+02 0.00e+00 4.19e+00  -1.6 1.22e-02    -  1.00e+00 5.00e-01f  2
 204  2.8276338e+02 0.00e+00 2.77e+00  -1.6 1.35e-01    -  1.00e+00 3.13e-02f  6
 205  2.8237213e+02 0.00e+00 3.55e+00  -1.6 3.85e-02    -  1.00e+00 6.25e-02f  5
 206  2.8186367e+02 0.00e+00 2.27e+00  -1.6 2.61e-02    -  1.00e+00 1.25e-01f  4
 207  2.8064791e+02 0.00e+00 6.74e+00  -1.6 2.31e-02    -  1.00e+00 5.00e-01f  2
 208  2.7938825e+02 0.00e+00 7.67e+00  -1.6 2.28e-01    -  1.00e+00 3.13e-02f  6
 209  2.7800164e+02 0.00e+00 3.44e+00  -1.6 2.41e-01    -  1.00e+00 3.13e-02f  6
iter    objective    inf_pr   inf_du lg(mu)  ||d||  lg(rg) alpha_du alpha_pr  ls
 210  2.7732292e+02 0.00e+00 3.66e+00  -1.6 1.33e-01    -  1.00e+00 3.13e-02f  6
 211  2.7649201e+02 0.00e+00 2.29e+00  -1.6 7.36e-02    -  1.00e+00 6.25e-02f  5
 212  3.6557006e+02 0.00e+00 8.49e+01  -1.6 6.32e-02    -  1.00e+00 1.00e+00w  1
 213  4.0714451e+02 0.00e+00 7.41e+01  -1.6 7.26e-02    -  1.00e+00 1.00e+00w  1
 214  5.4951930e+03 0.00e+00 5.17e+02  -1.6 6.57e-02    -  1.00e+00 1.00e+00w  1
 215  2.7595162e+02 0.00e+00 9.25e+00  -1.6 4.06e-02    -  1.00e+00 1.25e-01f  3
 216  2.7358753e+02 0.00e+00 2.88e+00  -1.6 8.03e-03    -  1.00e+00 1.00e+00f  1
 217  2.7322687e+02 0.00e+00 2.90e+00  -1.6 6.28e-02    -  1.00e+00 3.13e-02f  6
 218  2.7220674e+02 0.00e+00 4.12e+00  -1.6 1.32e-02    -  1.00e+00 5.00e-01f  2
 219  2.7120339e+02 0.00e+00 5.56e+00  -1.6 2.22e-01    -  1.00e+00 6.25e-02f  5
iter    objective    inf_pr   inf_du lg(mu)  ||d||  lg(rg) alpha_du alpha_pr  ls
 220  2.6956531e+02 0.00e+00 6.78e+00  -1.6 2.81e-01    -  1.00e+00 6.25e-02f  5
 221  2.6803404e+02 0.00e+00 7.03e+00  -1.6 3.39e-01    -  1.00e+00 3.13e-02f  6
 222  2.6680802e+02 0.00e+00 6.50e+00  -1.6 3.30e-01    -  1.00e+00 3.13e-02f  6
 223  2.6535889e+02 0.00e+00 5.89e+00  -1.6 1.48e-01    -  1.00e+00 6.25e-02f  5
 224  2.6417797e+02 0.00e+00 5.87e+00  -1.6 1.53e-01    -  1.00e+00 6.25e-02f  5
 225  2.6332543e+02 0.00e+00 4.17e+00  -1.6 4.44e-02    -  1.00e+00 6.25e-02f  5
 226  2.6279736e+02 0.00e+00 6.02e+00  -1.6 5.97e-03    -  1.00e+00 2.50e-01f  3
 227  2.6658800e+02 0.00e+00 1.28e+01  -1.6 2.71e-03    -  1.00e+00 1.00e+00w  1
 228  2.6307757e+02 0.00e+00 9.52e+00  -1.6 2.93e-03    -  1.00e+00 1.00e+00f  1
 229  2.6273687e+02 0.00e+00 8.05e+00  -1.6 4.03e-03    -  1.00e+00 1.00e+00f  1
iter    objective    inf_pr   inf_du lg(mu)  ||d||  lg(rg) alpha_du alpha_pr  ls
 230  2.6174601e+02 0.00e+00 7.85e+00  -1.6 2.43e-03    -  1.00e+00 1.00e+00f  1
 231  2.6072330e+02 0.00e+00 3.54e+00  -1.6 2.14e-03    -  1.00e+00 5.00e-01f  2
 232  2.6033277e+02 0.00e+00 1.83e+00  -1.6 1.66e-03    -  1.00e+00 5.00e-01f  2
 233  2.6030389e+02 0.00e+00 3.35e+00  -1.6 4.70e-04    -  1.00e+00 1.00e+00f  1
 234  2.6000441e+02 0.00e+00 1.35e+00  -1.6 5.50e-04    -  1.00e+00 1.00e+00f  1
 235  2.5978313e+02 0.00e+00 1.69e+00  -1.6 8.98e-04    -  1.00e+00 1.00e+00f  1
 236  2.5964474e+02 0.00e+00 3.53e+00  -1.6 1.75e-03    -  1.00e+00 1.00e+00f  1
 237  2.5925603e+02 0.00e+00 2.53e+00  -1.6 6.18e-03    -  1.00e+00 2.50e-01f  3
 238  2.5910055e+02 0.00e+00 3.46e+00  -1.6 1.13e-02    -  1.00e+00 1.25e-01f  4
 239  2.5898308e+02 0.00e+00 2.31e+00  -1.6 3.22e-03    -  1.00e+00 2.50e-01f  3
iter    objective    inf_pr   inf_du lg(mu)  ||d||  lg(rg) alpha_du alpha_pr  ls
 240  2.5893271e+02 0.00e+00 3.00e+00  -1.6 1.07e-03    -  1.00e+00 1.00e+00f  1
 241  2.5865259e+02 0.00e+00 2.46e+00  -1.6 5.15e-04    -  1.00e+00 1.00e+00f  1
 242  2.5843783e+02 0.00e+00 1.11e+00  -1.6 3.33e-04    -  1.00e+00 1.00e+00f  1
 243  2.5834878e+02 0.00e+00 2.15e+00  -1.6 9.05e-04    -  1.00e+00 1.00e+00f  1
 244  2.5806809e+02 0.00e+00 3.64e+00  -1.6 3.52e-03    -  1.00e+00 1.00e+00f  1
 245  2.5736871e+02 0.00e+00 3.24e+00  -1.6 4.90e-02    -  1.00e+00 1.25e-01f  4
 246  2.5722549e+02 0.00e+00 3.58e+00  -1.6 9.45e-02    -  1.00e+00 3.13e-02f  6
 247  2.5707883e+02 0.00e+00 2.35e+00  -1.6 7.51e-03    -  1.00e+00 1.25e-01f  4
 248  2.5680771e+02 0.00e+00 2.73e+00  -1.6 1.87e-03    -  1.00e+00 5.00e-01f  2
 249  2.5674264e+02 0.00e+00 3.58e+00  -1.6 1.83e-03    -  1.00e+00 5.00e-01f  2
iter    objective    inf_pr   inf_du lg(mu)  ||d||  lg(rg) alpha_du alpha_pr  ls
 250  2.5666209e+02 0.00e+00 5.07e+00  -1.6 8.27e-04    -  1.00e+00 1.00e+00f  1
 251  2.5633952e+02 0.00e+00 1.17e+00  -1.6 9.62e-04    -  1.00e+00 1.00e+00f  1
 252  2.5623023e+02 0.00e+00 1.49e+00  -1.6 2.04e-03    -  1.00e+00 1.00e+00f  1
 253  2.5601354e+02 0.00e+00 2.84e+00  -1.6 1.72e-02    -  1.00e+00 2.50e-01f  3
 254  2.5560892e+02 0.00e+00 3.86e+00  -1.6 9.55e-02    -  1.00e+00 1.25e-01f  4
 255  2.5542355e+02 0.00e+00 3.25e+00  -1.6 1.52e-01    -  1.00e+00 1.56e-02f  7
 256  2.5527861e+02 0.00e+00 2.26e+00  -1.6 2.36e-02    -  1.00e+00 6.25e-02f  5
 257  2.5510151e+02 0.00e+00 4.63e+00  -1.6 3.21e-03    -  1.00e+00 5.00e-01f  2
 258  2.5501906e+02 0.00e+00 5.84e+00  -1.6 1.58e-03    -  1.00e+00 5.00e-01f  2
 259  2.5475314e+02 0.00e+00 2.82e+00  -1.6 2.28e-03    -  1.00e+00 1.00e+00f  1
iter    objective    inf_pr   inf_du lg(mu)  ||d||  lg(rg) alpha_du alpha_pr  ls
 260  2.5458578e+02 0.00e+00 3.49e+00  -1.6 6.43e-03    -  1.00e+00 5.00e-01f  2
 261  2.5438560e+02 0.00e+00 2.40e+00  -1.6 3.17e-02    -  1.00e+00 1.25e-01f  4
 262  2.5396602e+02 0.00e+00 2.62e+00  -1.6 4.17e-02    -  1.00e+00 2.50e-01f  3
 263  2.5361183e+02 0.00e+00 2.70e+00  -1.6 1.90e-01    -  1.00e+00 3.13e-02f  6
 264  2.5335908e+02 0.00e+00 5.81e+00  -1.6 1.31e-01    -  1.00e+00 6.25e-02f  5
 265  2.5296290e+02 0.00e+00 6.94e+00  -1.6 9.59e-02    -  1.00e+00 6.25e-02f  5
 266  2.5160944e+02 0.00e+00 2.37e+00  -1.6 3.44e-01    -  1.00e+00 6.25e-02f  5
 267  2.5060733e+02 0.00e+00 3.12e+00  -1.6 9.93e-01    -  1.00e+00 1.56e-02f  7
 268  2.4975875e+02 0.00e+00 3.90e+00  -1.6 6.57e-01    -  1.00e+00 3.13e-02f  6
 269  2.4928531e+02 0.00e+00 3.54e+00  -1.6 4.37e-01    -  1.00e+00 1.56e-02f  7
iter    objective    inf_pr   inf_du lg(mu)  ||d||  lg(rg) alpha_du alpha_pr  ls
 270  3.4316655e+02 0.00e+00 7.80e+01  -1.6 1.49e-01    -  1.00e+00 1.00e+00w  1
 271  1.0910364e+03 0.00e+00 1.83e+02  -1.6 1.71e-01    -  1.00e+00 1.00e+00w  1
 272  9.5166639e+02 0.00e+00 2.12e+02  -1.6 3.48e-02    -  1.00e+00 1.00e+00w  1
 273  2.4864296e+02 0.00e+00 7.86e+00  -1.6 2.28e-01    -  1.00e+00 1.25e-01f  3
 274  2.4815509e+02 0.00e+00 7.55e+00  -1.6 3.87e-02    -  1.00e+00 6.25e-02f  5
 275  2.4723800e+02 0.00e+00 3.36e+00  -1.6 5.49e-03    -  1.00e+00 2.50e-01f  3
 276  2.4688542e+02 0.00e+00 3.13e+00  -1.6 1.92e-03    -  1.00e+00 2.50e-01f  3
 277  2.4682012e+02 0.00e+00 5.71e+00  -1.6 1.06e-03    -  1.00e+00 1.00e+00f  1
 278  2.4653885e+02 0.00e+00 6.15e+00  -1.6 6.93e-03    -  1.00e+00 1.00e+00f  1
 279  2.4577677e+02 0.00e+00 5.94e+00  -1.6 3.83e-02    -  1.00e+00 2.50e-01f  3
iter    objective    inf_pr   inf_du lg(mu)  ||d||  lg(rg) alpha_du alpha_pr  ls
 280  2.4548899e+02 0.00e+00 9.18e+00  -1.6 1.35e-01    -  1.00e+00 6.25e-02f  5
 281  2.4531514e+02 0.00e+00 7.68e+00  -1.6 4.90e-03    -  1.00e+00 2.50e-01f  3
 282  2.4428872e+02 0.00e+00 1.65e+00  -1.6 1.89e-03    -  1.00e+00 1.00e+00f  1
 283  2.4384345e+02 0.00e+00 2.34e+00  -1.6 6.10e-03    -  1.00e+00 1.00e+00f  1
 284  2.4279035e+02 0.00e+00 3.64e+00  -1.6 3.12e-01    -  1.00e+00 6.25e-02f  5
 285  2.4122381e+02 0.00e+00 8.82e+00  -1.6 1.40e+00    -  9.08e-01 3.13e-02f  6
 286  2.3981131e+02 0.00e+00 6.67e+00  -1.6 1.34e+00    -  1.00e+00 3.13e-02f  6
 287  2.3878301e+02 0.00e+00 5.10e+00  -1.6 1.21e+00    -  7.55e-01 1.56e-02f  7
 288  2.3809945e+02 0.00e+00 4.59e+00  -1.6 8.63e-01    -  1.00e+00 1.56e-02f  7
 289  2.3693222e+02 0.00e+00 4.30e+00  -1.6 2.85e-01    -  1.00e+00 6.25e-02f  5
iter    objective    inf_pr   inf_du lg(mu)  ||d||  lg(rg) alpha_du alpha_pr  ls
 290  2.3662513e+02 0.00e+00 9.27e+00  -2.0 4.69e-01    -  1.00e+00 6.25e-02f  5
 291  2.3618050e+02 0.00e+00 8.39e+00  -2.6 1.20e+00    -  1.00e+00 3.13e-02f  6
 292  2.3555896e+02 0.00e+00 6.59e+00  -2.3 1.53e+00    -  1.00e+00 2.48e-02f  6
 293  2.3469505e+02 0.00e+00 6.77e+00  -2.6 1.52e+00    -  1.00e+00 2.08e-02f  6
 294  2.3356060e+02 0.00e+00 8.95e+00  -3.4 1.37e+00    -  1.00e+00 3.13e-02f  6
 295  2.3246930e+02 0.00e+00 1.08e+01  -3.0 2.99e+00    -  1.00e+00 2.20e-02f  6
 296  2.3085999e+02 0.00e+00 1.10e+01  -3.0 4.17e+00    -  1.00e+00 1.51e-02f  6
 297  2.2917085e+02 0.00e+00 1.74e+01  -3.1 3.56e+00    -  1.00e+00 1.33e-02f  6
 298  2.2696780e+02 0.00e+00 1.05e+01  -3.5 1.84e+00    -  1.00e+00 1.38e-02f  7
 299  2.2520985e+02 0.00e+00 8.13e+00  -3.5 1.51e+00    -  1.00e+00 1.56e-02f  7
iter    objective    inf_pr   inf_du lg(mu)  ||d||  lg(rg) alpha_du alpha_pr  ls
 300  2.2396403e+02 0.00e+00 1.14e+01  -4.1 6.90e-01    -  1.00e+00 3.13e-02f  6

Number of Iterations....: 300

                                   (scaled)                 (unscaled)
Objective...............:   4.5302170077981344e+01    2.2396403439335197e+02
Dual infeasibility......:   1.1404736473737387e+01    5.6382526211315053e+01
Constraint violation....:   0.0000000000000000e+00    0.0000000000000000e+00
Variable bound violation:   0.0000000000000000e+00    0.0000000000000000e+00
Complementarity.........:   1.7439566708403693e-02    8.6217408820873948e-02
Overall NLP error.......:   1.1404736473737387e+01    5.6382526211315053e+01


Number of objective function evaluations             = 1715
Number of objective gradient evaluations             = 301
Number of equality constraint evaluations            = 0
Number of inequality constraint evaluations          = 0
Number of equality constraint Jacobian evaluations   = 0
Number of inequality constraint Jacobian evaluations = 0
Number of Lagrangian Hessian evaluations             = 0
Total seconds in IPOPT                               = 29.102

EXIT: Maximum Number of Iterations Exceeded.
